22
18
13 15 16 10 1 8 20 6 9 18 3 19 12
21 15 8 9 3 7 16 10 2 13 5 12 19 4
20 17 4 2 14 3 19 16 12 11 15 18 10 0
12 6 19 10 3 9 14 5 13 15 7
3 11 2 6 13 15 7 10 16 14 0 4 17 19 5 1 20 18 9 12
14 21 12 5 9 0 15 3 8 11 17 13 6 4 7
8 11 7 3 4 13 16 20 21 5 15 19 10 2 12 9 18
17 4 3 19 18 11
10 21 2 1 3 19 11 17 6 20 15 12 7 9 4 0 5 8
21 15 1 3 18 17 20 14 7 9 2 11 10 12 8
5 8 12 17 1 18 20 15 10 9 21 2 6 19 13 3
4 19 1
9 18 2 21
5 2 0 4 9 6 10
5 20 17 15 21 13 8 4 10
17 6 12 7 20 13
10 7 19 20 11 5 16 12 3 6 1 8 15 0 17 14 13 2
21 7 13 0 18 14
